p cnf 391 1325
c p weight -155 1 0
c p weight 155 -1 0
c p weight 159 6.12323399573676603586882014729198302312846062338790031898128063403419218957424163818359375E-17 0
c p weight -159 1 0
c p weight 160 1 0
c p weight -160 1 0
c p weight -157 1 0
c p weight 157 -1 0
c p weight -161 1 0
c p weight 161 -1 0
c p weight -163 1 0
c p weight 163 -1 0
c p weight -166 1 0
c p weight 166 -1 0
c p weight -169 1 0
c p weight 169 -1 0
c p weight -172 1 0
c p weight 172 -1 0
c p weight -175 1 0
c p weight 175 -1 0
c p weight -178 1 0
c p weight 178 -1 0
c p weight -181 1 0
c p weight 181 -1 0
c p weight -184 1 0
c p weight 184 -1 0
c p weight -187 1 0
c p weight 187 -1 0
c p weight -190 1 0
c p weight 190 -1 0
c p weight -193 1 0
c p weight 193 -1 0
c p weight -196 1 0
c p weight 196 -1 0
c p weight -199 1 0
c p weight 199 -1 0
c p weight -202 1 0
c p weight 202 -1 0
c p weight -205 1 0
c p weight 205 -1 0
c p weight -208 1 0
c p weight 208 -1 0
c p weight -211 1 0
c p weight 211 -1 0
c p weight -214 1 0
c p weight 214 -1 0
c p weight -217 1 0
c p weight 217 -1 0
c p weight -220 1 0
c p weight 220 -1 0
c p weight -223 1 0
c p weight 223 -1 0
c p weight -226 1 0
c p weight 226 -1 0
c p weight -229 1 0
c p weight 229 -1 0
c p weight -232 1 0
c p weight 232 -1 0
c p weight -235 1 0
c p weight 235 -1 0
c p weight -238 1 0
c p weight 238 -1 0
c p weight -241 1 0
c p weight 241 -1 0
c p weight -244 1 0
c p weight 244 -1 0
c p weight -247 1 0
c p weight 247 -1 0
c p weight -250 1 0
c p weight 250 -1 0
c p weight -253 1 0
c p weight 253 -1 0
c p weight -256 1 0
c p weight 256 -1 0
c p weight -259 1 0
c p weight 259 -1 0
c p weight -262 1 0
c p weight 262 -1 0
c p weight -265 1 0
c p weight 265 -1 0
c p weight -268 1 0
c p weight 268 -1 0
c p weight -271 1 0
c p weight 271 -1 0
c p weight -274 1 0
c p weight 274 -1 0
c p weight -277 1 0
c p weight 277 -1 0
c p weight -280 1 0
c p weight 280 -1 0
c p weight -283 1 0
c p weight 283 -1 0
c p weight -286 1 0
c p weight 286 -1 0
c p weight -289 1 0
c p weight 289 -1 0
c p weight -292 1 0
c p weight 292 -1 0
c p weight -295 1 0
c p weight 295 -1 0
c p weight -298 1 0
c p weight 298 -1 0
c p weight -301 1 0
c p weight 301 -1 0
c p weight -304 1 0
c p weight 304 -1 0
c p weight -307 1 0
c p weight 307 -1 0
c p weight -310 1 0
c p weight 310 -1 0
c p weight -313 1 0
c p weight 313 -1 0
c p weight -316 1 0
c p weight 316 -1 0
c p weight -319 1 0
c p weight 319 -1 0
c p weight -322 1 0
c p weight 322 -1 0
c p weight -325 1 0
c p weight 325 -1 0
c p weight -328 1 0
c p weight 328 -1 0
c p weight -331 1 0
c p weight 331 -1 0
c p weight -334 1 0
c p weight 334 -1 0
c p weight -337 1 0
c p weight 337 -1 0
c p weight -340 1 0
c p weight 340 -1 0
c p weight -343 1 0
c p weight 343 -1 0
c p weight -346 1 0
c p weight 346 -1 0
c p weight -349 1 0
c p weight 349 -1 0
c p weight -352 1 0
c p weight 352 -1 0
c p weight -355 1 0
c p weight 355 -1 0
c p weight -358 1 0
c p weight 358 -1 0
c p weight -361 1 0
c p weight 361 -1 0
c p weight -364 1 0
c p weight 364 -1 0
c p weight -367 1 0
c p weight 367 -1 0
c p weight -370 1 0
c p weight 370 -1 0
c p weight -373 1 0
c p weight 373 -1 0
c p weight -376 1 0
c p weight 376 -1 0
c p weight -379 1 0
c p weight 379 -1 0
c p weight -382 1 0
c p weight 382 -1 0
c p weight -385 1 0
c p weight 385 -1 0
c p weight -388 1 0
c p weight 388 -1 0
c p weight 391 0.5 0
c p weight -391 1 0
391 0
-153 0
-151 0
-149 0
-147 0
-145 0
-143 0
-141 0
-139 0
-137 0
-135 0
-133 0
-131 0
-129 0
-127 0
-125 0
-123 0
-121 0
-119 0
-117 0
-115 0
-113 0
-111 0
-109 0
-107 0
-105 0
-103 0
-101 0
-99 0
-97 0
-95 0
-93 0
-91 0
-89 0
-87 0
-85 0
-83 0
-81 0
-79 0
-77 0
-75 0
-73 0
-71 0
-69 0
-67 0
-65 0
-63 0
-61 0
-59 0
-57 0
-55 0
-53 0
-51 0
-49 0
-47 0
-45 0
-43 0
-41 0
-39 0
-37 0
-35 0
-33 0
-31 0
-29 0
-27 0
-25 0
-23 0
-21 0
-19 0
-17 0
-15 0
-13 0
-11 0
-9 0
-7 0
-5 0
-3 0
-1 0
-155 153 0
-155 154 0
155 -153 -154 0
156 153 -154 0
156 -153 154 0
-156 153 154 0
-156 -153 -154 0
-157 158 0
-157 156 0
-157 -153 0
157 -158 153 -156 0
158 -153 156 0
-158 153 156 0
-159 156 0
158 -159 -153 0
-158 -159 153 0
158 159 153 -156 0
-158 159 -153 -156 0
-160 156 0
158 -160 153 0
-158 -160 -153 0
158 160 -153 -156 0
-158 160 153 -156 0
-161 158 0
-161 156 0
161 -158 -156 0
162 158 -156 0
162 -158 156 0
-162 158 156 0
-162 -158 -156 0
-163 158 0
-163 152 0
-163 151 -162 0
-163 -151 162 0
163 -158 151 162 -152 0
163 -158 -151 -162 -152 0
165 158 -151 0
165 -158 151 0
-165 158 151 0
-165 -158 -151 0
164 162 -152 0
164 -162 152 0
-164 162 152 0
-164 -162 -152 0
-166 165 0
-166 150 0
-166 149 -152 0
-166 -149 152 0
166 -165 149 152 -150 0
166 -165 -149 -152 -150 0
168 165 -149 0
168 -165 149 0
-168 165 149 0
-168 -165 -149 0
167 152 -150 0
167 -152 150 0
-167 152 150 0
-167 -152 -150 0
-169 168 0
-169 148 0
-169 147 -150 0
-169 -147 150 0
169 -168 147 150 -148 0
169 -168 -147 -150 -148 0
171 168 -147 0
171 -168 147 0
-171 168 147 0
-171 -168 -147 0
170 150 -148 0
170 -150 148 0
-170 150 148 0
-170 -150 -148 0
-172 171 0
-172 146 0
-172 145 -148 0
-172 -145 148 0
172 -171 145 148 -146 0
172 -171 -145 -148 -146 0
174 171 -145 0
174 -171 145 0
-174 171 145 0
-174 -171 -145 0
173 148 -146 0
173 -148 146 0
-173 148 146 0
-173 -148 -146 0
-175 174 0
-175 144 0
-175 143 -146 0
-175 -143 146 0
175 -174 143 146 -144 0
175 -174 -143 -146 -144 0
177 174 -143 0
177 -174 143 0
-177 174 143 0
-177 -174 -143 0
176 146 -144 0
176 -146 144 0
-176 146 144 0
-176 -146 -144 0
-178 177 0
-178 142 0
-178 141 -144 0
-178 -141 144 0
178 -177 141 144 -142 0
178 -177 -141 -144 -142 0
180 177 -141 0
180 -177 141 0
-180 177 141 0
-180 -177 -141 0
179 144 -142 0
179 -144 142 0
-179 144 142 0
-179 -144 -142 0
-181 180 0
-181 140 0
-181 139 -142 0
-181 -139 142 0
181 -180 139 142 -140 0
181 -180 -139 -142 -140 0
183 180 -139 0
183 -180 139 0
-183 180 139 0
-183 -180 -139 0
182 142 -140 0
182 -142 140 0
-182 142 140 0
-182 -142 -140 0
-184 183 0
-184 138 0
-184 137 -140 0
-184 -137 140 0
184 -183 137 140 -138 0
184 -183 -137 -140 -138 0
186 183 -137 0
186 -183 137 0
-186 183 137 0
-186 -183 -137 0
185 140 -138 0
185 -140 138 0
-185 140 138 0
-185 -140 -138 0
-187 186 0
-187 136 0
-187 135 -138 0
-187 -135 138 0
187 -186 135 138 -136 0
187 -186 -135 -138 -136 0
189 186 -135 0
189 -186 135 0
-189 186 135 0
-189 -186 -135 0
188 138 -136 0
188 -138 136 0
-188 138 136 0
-188 -138 -136 0
-190 189 0
-190 134 0
-190 133 -136 0
-190 -133 136 0
190 -189 133 136 -134 0
190 -189 -133 -136 -134 0
192 189 -133 0
192 -189 133 0
-192 189 133 0
-192 -189 -133 0
191 136 -134 0
191 -136 134 0
-191 136 134 0
-191 -136 -134 0
-193 192 0
-193 132 0
-193 131 -134 0
-193 -131 134 0
193 -192 131 134 -132 0
193 -192 -131 -134 -132 0
195 192 -131 0
195 -192 131 0
-195 192 131 0
-195 -192 -131 0
194 134 -132 0
194 -134 132 0
-194 134 132 0
-194 -134 -132 0
-196 195 0
-196 130 0
-196 129 -132 0
-196 -129 132 0
196 -195 129 132 -130 0
196 -195 -129 -132 -130 0
198 195 -129 0
198 -195 129 0
-198 195 129 0
-198 -195 -129 0
197 132 -130 0
197 -132 130 0
-197 132 130 0
-197 -132 -130 0
-199 198 0
-199 128 0
-199 127 -130 0
-199 -127 130 0
199 -198 127 130 -128 0
199 -198 -127 -130 -128 0
201 198 -127 0
201 -198 127 0
-201 198 127 0
-201 -198 -127 0
200 130 -128 0
200 -130 128 0
-200 130 128 0
-200 -130 -128 0
-202 201 0
-202 126 0
-202 125 -128 0
-202 -125 128 0
202 -201 125 128 -126 0
202 -201 -125 -128 -126 0
204 201 -125 0
204 -201 125 0
-204 201 125 0
-204 -201 -125 0
203 128 -126 0
203 -128 126 0
-203 128 126 0
-203 -128 -126 0
-205 204 0
-205 124 0
-205 123 -126 0
-205 -123 126 0
205 -204 123 126 -124 0
205 -204 -123 -126 -124 0
207 204 -123 0
207 -204 123 0
-207 204 123 0
-207 -204 -123 0
206 126 -124 0
206 -126 124 0
-206 126 124 0
-206 -126 -124 0
-208 207 0
-208 122 0
-208 121 -124 0
-208 -121 124 0
208 -207 121 124 -122 0
208 -207 -121 -124 -122 0
210 207 -121 0
210 -207 121 0
-210 207 121 0
-210 -207 -121 0
209 124 -122 0
209 -124 122 0
-209 124 122 0
-209 -124 -122 0
-211 210 0
-211 120 0
-211 119 -122 0
-211 -119 122 0
211 -210 119 122 -120 0
211 -210 -119 -122 -120 0
213 210 -119 0
213 -210 119 0
-213 210 119 0
-213 -210 -119 0
212 122 -120 0
212 -122 120 0
-212 122 120 0
-212 -122 -120 0
-214 213 0
-214 118 0
-214 117 -120 0
-214 -117 120 0
214 -213 117 120 -118 0
214 -213 -117 -120 -118 0
216 213 -117 0
216 -213 117 0
-216 213 117 0
-216 -213 -117 0
215 120 -118 0
215 -120 118 0
-215 120 118 0
-215 -120 -118 0
-217 216 0
-217 116 0
-217 115 -118 0
-217 -115 118 0
217 -216 115 118 -116 0
217 -216 -115 -118 -116 0
219 216 -115 0
219 -216 115 0
-219 216 115 0
-219 -216 -115 0
218 118 -116 0
218 -118 116 0
-218 118 116 0
-218 -118 -116 0
-220 219 0
-220 114 0
-220 113 -116 0
-220 -113 116 0
220 -219 113 116 -114 0
220 -219 -113 -116 -114 0
222 219 -113 0
222 -219 113 0
-222 219 113 0
-222 -219 -113 0
221 116 -114 0
221 -116 114 0
-221 116 114 0
-221 -116 -114 0
-223 222 0
-223 112 0
-223 111 -114 0
-223 -111 114 0
223 -222 111 114 -112 0
223 -222 -111 -114 -112 0
225 222 -111 0
225 -222 111 0
-225 222 111 0
-225 -222 -111 0
224 114 -112 0
224 -114 112 0
-224 114 112 0
-224 -114 -112 0
-226 225 0
-226 110 0
-226 109 -112 0
-226 -109 112 0
226 -225 109 112 -110 0
226 -225 -109 -112 -110 0
228 225 -109 0
228 -225 109 0
-228 225 109 0
-228 -225 -109 0
227 112 -110 0
227 -112 110 0
-227 112 110 0
-227 -112 -110 0
-229 228 0
-229 108 0
-229 107 -110 0
-229 -107 110 0
229 -228 107 110 -108 0
229 -228 -107 -110 -108 0
231 228 -107 0
231 -228 107 0
-231 228 107 0
-231 -228 -107 0
230 110 -108 0
230 -110 108 0
-230 110 108 0
-230 -110 -108 0
-232 231 0
-232 106 0
-232 105 -108 0
-232 -105 108 0
232 -231 105 108 -106 0
232 -231 -105 -108 -106 0
234 231 -105 0
234 -231 105 0
-234 231 105 0
-234 -231 -105 0
233 108 -106 0
233 -108 106 0
-233 108 106 0
-233 -108 -106 0
-235 234 0
-235 104 0
-235 103 -106 0
-235 -103 106 0
235 -234 103 106 -104 0
235 -234 -103 -106 -104 0
237 234 -103 0
237 -234 103 0
-237 234 103 0
-237 -234 -103 0
236 106 -104 0
236 -106 104 0
-236 106 104 0
-236 -106 -104 0
-238 237 0
-238 102 0
-238 101 -104 0
-238 -101 104 0
238 -237 101 104 -102 0
238 -237 -101 -104 -102 0
240 237 -101 0
240 -237 101 0
-240 237 101 0
-240 -237 -101 0
239 104 -102 0
239 -104 102 0
-239 104 102 0
-239 -104 -102 0
-241 240 0
-241 100 0
-241 99 -102 0
-241 -99 102 0
241 -240 99 102 -100 0
241 -240 -99 -102 -100 0
243 240 -99 0
243 -240 99 0
-243 240 99 0
-243 -240 -99 0
242 102 -100 0
242 -102 100 0
-242 102 100 0
-242 -102 -100 0
-244 243 0
-244 98 0
-244 97 -100 0
-244 -97 100 0
244 -243 97 100 -98 0
244 -243 -97 -100 -98 0
246 243 -97 0
246 -243 97 0
-246 243 97 0
-246 -243 -97 0
245 100 -98 0
245 -100 98 0
-245 100 98 0
-245 -100 -98 0
-247 246 0
-247 96 0
-247 95 -98 0
-247 -95 98 0
247 -246 95 98 -96 0
247 -246 -95 -98 -96 0
249 246 -95 0
249 -246 95 0
-249 246 95 0
-249 -246 -95 0
248 98 -96 0
248 -98 96 0
-248 98 96 0
-248 -98 -96 0
-250 249 0
-250 94 0
-250 93 -96 0
-250 -93 96 0
250 -249 93 96 -94 0
250 -249 -93 -96 -94 0
252 249 -93 0
252 -249 93 0
-252 249 93 0
-252 -249 -93 0
251 96 -94 0
251 -96 94 0
-251 96 94 0
-251 -96 -94 0
-253 252 0
-253 92 0
-253 91 -94 0
-253 -91 94 0
253 -252 91 94 -92 0
253 -252 -91 -94 -92 0
255 252 -91 0
255 -252 91 0
-255 252 91 0
-255 -252 -91 0
254 94 -92 0
254 -94 92 0
-254 94 92 0
-254 -94 -92 0
-256 255 0
-256 90 0
-256 89 -92 0
-256 -89 92 0
256 -255 89 92 -90 0
256 -255 -89 -92 -90 0
258 255 -89 0
258 -255 89 0
-258 255 89 0
-258 -255 -89 0
257 92 -90 0
257 -92 90 0
-257 92 90 0
-257 -92 -90 0
-259 258 0
-259 88 0
-259 87 -90 0
-259 -87 90 0
259 -258 87 90 -88 0
259 -258 -87 -90 -88 0
261 258 -87 0
261 -258 87 0
-261 258 87 0
-261 -258 -87 0
260 90 -88 0
260 -90 88 0
-260 90 88 0
-260 -90 -88 0
-262 261 0
-262 86 0
-262 85 -88 0
-262 -85 88 0
262 -261 85 88 -86 0
262 -261 -85 -88 -86 0
264 261 -85 0
264 -261 85 0
-264 261 85 0
-264 -261 -85 0
263 88 -86 0
263 -88 86 0
-263 88 86 0
-263 -88 -86 0
-265 264 0
-265 84 0
-265 83 -86 0
-265 -83 86 0
265 -264 83 86 -84 0
265 -264 -83 -86 -84 0
267 264 -83 0
267 -264 83 0
-267 264 83 0
-267 -264 -83 0
266 86 -84 0
266 -86 84 0
-266 86 84 0
-266 -86 -84 0
-268 267 0
-268 82 0
-268 81 -84 0
-268 -81 84 0
268 -267 81 84 -82 0
268 -267 -81 -84 -82 0
270 267 -81 0
270 -267 81 0
-270 267 81 0
-270 -267 -81 0
269 84 -82 0
269 -84 82 0
-269 84 82 0
-269 -84 -82 0
-271 270 0
-271 80 0
-271 79 -82 0
-271 -79 82 0
271 -270 79 82 -80 0
271 -270 -79 -82 -80 0
273 270 -79 0
273 -270 79 0
-273 270 79 0
-273 -270 -79 0
272 82 -80 0
272 -82 80 0
-272 82 80 0
-272 -82 -80 0
-274 273 0
-274 78 0
-274 77 -80 0
-274 -77 80 0
274 -273 77 80 -78 0
274 -273 -77 -80 -78 0
276 273 -77 0
276 -273 77 0
-276 273 77 0
-276 -273 -77 0
275 80 -78 0
275 -80 78 0
-275 80 78 0
-275 -80 -78 0
-277 276 0
-277 76 0
-277 75 -78 0
-277 -75 78 0
277 -276 75 78 -76 0
277 -276 -75 -78 -76 0
279 276 -75 0
279 -276 75 0
-279 276 75 0
-279 -276 -75 0
278 78 -76 0
278 -78 76 0
-278 78 76 0
-278 -78 -76 0
-280 279 0
-280 74 0
-280 73 -76 0
-280 -73 76 0
280 -279 73 76 -74 0
280 -279 -73 -76 -74 0
282 279 -73 0
282 -279 73 0
-282 279 73 0
-282 -279 -73 0
281 76 -74 0
281 -76 74 0
-281 76 74 0
-281 -76 -74 0
-283 282 0
-283 72 0
-283 71 -74 0
-283 -71 74 0
283 -282 71 74 -72 0
283 -282 -71 -74 -72 0
285 282 -71 0
285 -282 71 0
-285 282 71 0
-285 -282 -71 0
284 74 -72 0
284 -74 72 0
-284 74 72 0
-284 -74 -72 0
-286 285 0
-286 70 0
-286 69 -72 0
-286 -69 72 0
286 -285 69 72 -70 0
286 -285 -69 -72 -70 0
288 285 -69 0
288 -285 69 0
-288 285 69 0
-288 -285 -69 0
287 72 -70 0
287 -72 70 0
-287 72 70 0
-287 -72 -70 0
-289 288 0
-289 68 0
-289 67 -70 0
-289 -67 70 0
289 -288 67 70 -68 0
289 -288 -67 -70 -68 0
291 288 -67 0
291 -288 67 0
-291 288 67 0
-291 -288 -67 0
290 70 -68 0
290 -70 68 0
-290 70 68 0
-290 -70 -68 0
-292 291 0
-292 66 0
-292 65 -68 0
-292 -65 68 0
292 -291 65 68 -66 0
292 -291 -65 -68 -66 0
294 291 -65 0
294 -291 65 0
-294 291 65 0
-294 -291 -65 0
293 68 -66 0
293 -68 66 0
-293 68 66 0
-293 -68 -66 0
-295 294 0
-295 64 0
-295 63 -66 0
-295 -63 66 0
295 -294 63 66 -64 0
295 -294 -63 -66 -64 0
297 294 -63 0
297 -294 63 0
-297 294 63 0
-297 -294 -63 0
296 66 -64 0
296 -66 64 0
-296 66 64 0
-296 -66 -64 0
-298 297 0
-298 62 0
-298 61 -64 0
-298 -61 64 0
298 -297 61 64 -62 0
298 -297 -61 -64 -62 0
300 297 -61 0
300 -297 61 0
-300 297 61 0
-300 -297 -61 0
299 64 -62 0
299 -64 62 0
-299 64 62 0
-299 -64 -62 0
-301 300 0
-301 60 0
-301 59 -62 0
-301 -59 62 0
301 -300 59 62 -60 0
301 -300 -59 -62 -60 0
303 300 -59 0
303 -300 59 0
-303 300 59 0
-303 -300 -59 0
302 62 -60 0
302 -62 60 0
-302 62 60 0
-302 -62 -60 0
-304 303 0
-304 58 0
-304 57 -60 0
-304 -57 60 0
304 -303 57 60 -58 0
304 -303 -57 -60 -58 0
306 303 -57 0
306 -303 57 0
-306 303 57 0
-306 -303 -57 0
305 60 -58 0
305 -60 58 0
-305 60 58 0
-305 -60 -58 0
-307 306 0
-307 56 0
-307 55 -58 0
-307 -55 58 0
307 -306 55 58 -56 0
307 -306 -55 -58 -56 0
309 306 -55 0
309 -306 55 0
-309 306 55 0
-309 -306 -55 0
308 58 -56 0
308 -58 56 0
-308 58 56 0
-308 -58 -56 0
-310 309 0
-310 54 0
-310 53 -56 0
-310 -53 56 0
310 -309 53 56 -54 0
310 -309 -53 -56 -54 0
312 309 -53 0
312 -309 53 0
-312 309 53 0
-312 -309 -53 0
311 56 -54 0
311 -56 54 0
-311 56 54 0
-311 -56 -54 0
-313 312 0
-313 52 0
-313 51 -54 0
-313 -51 54 0
313 -312 51 54 -52 0
313 -312 -51 -54 -52 0
315 312 -51 0
315 -312 51 0
-315 312 51 0
-315 -312 -51 0
314 54 -52 0
314 -54 52 0
-314 54 52 0
-314 -54 -52 0
-316 315 0
-316 50 0
-316 49 -52 0
-316 -49 52 0
316 -315 49 52 -50 0
316 -315 -49 -52 -50 0
318 315 -49 0
318 -315 49 0
-318 315 49 0
-318 -315 -49 0
317 52 -50 0
317 -52 50 0
-317 52 50 0
-317 -52 -50 0
-319 318 0
-319 48 0
-319 47 -50 0
-319 -47 50 0
319 -318 47 50 -48 0
319 -318 -47 -50 -48 0
321 318 -47 0
321 -318 47 0
-321 318 47 0
-321 -318 -47 0
320 50 -48 0
320 -50 48 0
-320 50 48 0
-320 -50 -48 0
-322 321 0
-322 46 0
-322 45 -48 0
-322 -45 48 0
322 -321 45 48 -46 0
322 -321 -45 -48 -46 0
324 321 -45 0
324 -321 45 0
-324 321 45 0
-324 -321 -45 0
323 48 -46 0
323 -48 46 0
-323 48 46 0
-323 -48 -46 0
-325 324 0
-325 44 0
-325 43 -46 0
-325 -43 46 0
325 -324 43 46 -44 0
325 -324 -43 -46 -44 0
327 324 -43 0
327 -324 43 0
-327 324 43 0
-327 -324 -43 0
326 46 -44 0
326 -46 44 0
-326 46 44 0
-326 -46 -44 0
-328 327 0
-328 42 0
-328 41 -44 0
-328 -41 44 0
328 -327 41 44 -42 0
328 -327 -41 -44 -42 0
330 327 -41 0
330 -327 41 0
-330 327 41 0
-330 -327 -41 0
329 44 -42 0
329 -44 42 0
-329 44 42 0
-329 -44 -42 0
-331 330 0
-331 40 0
-331 39 -42 0
-331 -39 42 0
331 -330 39 42 -40 0
331 -330 -39 -42 -40 0
333 330 -39 0
333 -330 39 0
-333 330 39 0
-333 -330 -39 0
332 42 -40 0
332 -42 40 0
-332 42 40 0
-332 -42 -40 0
-334 333 0
-334 38 0
-334 37 -40 0
-334 -37 40 0
334 -333 37 40 -38 0
334 -333 -37 -40 -38 0
336 333 -37 0
336 -333 37 0
-336 333 37 0
-336 -333 -37 0
335 40 -38 0
335 -40 38 0
-335 40 38 0
-335 -40 -38 0
-337 336 0
-337 36 0
-337 35 -38 0
-337 -35 38 0
337 -336 35 38 -36 0
337 -336 -35 -38 -36 0
339 336 -35 0
339 -336 35 0
-339 336 35 0
-339 -336 -35 0
338 38 -36 0
338 -38 36 0
-338 38 36 0
-338 -38 -36 0
-340 339 0
-340 34 0
-340 33 -36 0
-340 -33 36 0
340 -339 33 36 -34 0
340 -339 -33 -36 -34 0
342 339 -33 0
342 -339 33 0
-342 339 33 0
-342 -339 -33 0
341 36 -34 0
341 -36 34 0
-341 36 34 0
-341 -36 -34 0
-343 342 0
-343 32 0
-343 31 -34 0
-343 -31 34 0
343 -342 31 34 -32 0
343 -342 -31 -34 -32 0
345 342 -31 0
345 -342 31 0
-345 342 31 0
-345 -342 -31 0
344 34 -32 0
344 -34 32 0
-344 34 32 0
-344 -34 -32 0
-346 345 0
-346 30 0
-346 29 -32 0
-346 -29 32 0
346 -345 29 32 -30 0
346 -345 -29 -32 -30 0
348 345 -29 0
348 -345 29 0
-348 345 29 0
-348 -345 -29 0
347 32 -30 0
347 -32 30 0
-347 32 30 0
-347 -32 -30 0
-349 348 0
-349 28 0
-349 27 -30 0
-349 -27 30 0
349 -348 27 30 -28 0
349 -348 -27 -30 -28 0
351 348 -27 0
351 -348 27 0
-351 348 27 0
-351 -348 -27 0
350 30 -28 0
350 -30 28 0
-350 30 28 0
-350 -30 -28 0
-352 351 0
-352 26 0
-352 25 -28 0
-352 -25 28 0
352 -351 25 28 -26 0
352 -351 -25 -28 -26 0
354 351 -25 0
354 -351 25 0
-354 351 25 0
-354 -351 -25 0
353 28 -26 0
353 -28 26 0
-353 28 26 0
-353 -28 -26 0
-355 354 0
-355 24 0
-355 23 -26 0
-355 -23 26 0
355 -354 23 26 -24 0
355 -354 -23 -26 -24 0
357 354 -23 0
357 -354 23 0
-357 354 23 0
-357 -354 -23 0
356 26 -24 0
356 -26 24 0
-356 26 24 0
-356 -26 -24 0
-358 357 0
-358 22 0
-358 21 -24 0
-358 -21 24 0
358 -357 21 24 -22 0
358 -357 -21 -24 -22 0
360 357 -21 0
360 -357 21 0
-360 357 21 0
-360 -357 -21 0
359 24 -22 0
359 -24 22 0
-359 24 22 0
-359 -24 -22 0
-361 360 0
-361 20 0
-361 19 -22 0
-361 -19 22 0
361 -360 19 22 -20 0
361 -360 -19 -22 -20 0
363 360 -19 0
363 -360 19 0
-363 360 19 0
-363 -360 -19 0
362 22 -20 0
362 -22 20 0
-362 22 20 0
-362 -22 -20 0
-364 363 0
-364 18 0
-364 17 -20 0
-364 -17 20 0
364 -363 17 20 -18 0
364 -363 -17 -20 -18 0
366 363 -17 0
366 -363 17 0
-366 363 17 0
-366 -363 -17 0
365 20 -18 0
365 -20 18 0
-365 20 18 0
-365 -20 -18 0
-367 366 0
-367 16 0
-367 15 -18 0
-367 -15 18 0
367 -366 15 18 -16 0
367 -366 -15 -18 -16 0
369 366 -15 0
369 -366 15 0
-369 366 15 0
-369 -366 -15 0
368 18 -16 0
368 -18 16 0
-368 18 16 0
-368 -18 -16 0
-370 369 0
-370 14 0
-370 13 -16 0
-370 -13 16 0
370 -369 13 16 -14 0
370 -369 -13 -16 -14 0
372 369 -13 0
372 -369 13 0
-372 369 13 0
-372 -369 -13 0
371 16 -14 0
371 -16 14 0
-371 16 14 0
-371 -16 -14 0
-373 372 0
-373 12 0
-373 11 -14 0
-373 -11 14 0
373 -372 11 14 -12 0
373 -372 -11 -14 -12 0
375 372 -11 0
375 -372 11 0
-375 372 11 0
-375 -372 -11 0
374 14 -12 0
374 -14 12 0
-374 14 12 0
-374 -14 -12 0
-376 375 0
-376 10 0
-376 9 -12 0
-376 -9 12 0
376 -375 9 12 -10 0
376 -375 -9 -12 -10 0
378 375 -9 0
378 -375 9 0
-378 375 9 0
-378 -375 -9 0
377 12 -10 0
377 -12 10 0
-377 12 10 0
-377 -12 -10 0
-379 378 0
-379 8 0
-379 7 -10 0
-379 -7 10 0
379 -378 7 10 -8 0
379 -378 -7 -10 -8 0
381 378 -7 0
381 -378 7 0
-381 378 7 0
-381 -378 -7 0
380 10 -8 0
380 -10 8 0
-380 10 8 0
-380 -10 -8 0
-382 381 0
-382 6 0
-382 5 -8 0
-382 -5 8 0
382 -381 5 8 -6 0
382 -381 -5 -8 -6 0
384 381 -5 0
384 -381 5 0
-384 381 5 0
-384 -381 -5 0
383 8 -6 0
383 -8 6 0
-383 8 6 0
-383 -8 -6 0
-385 384 0
-385 4 0
-385 3 -6 0
-385 -3 6 0
385 -384 3 6 -4 0
385 -384 -3 -6 -4 0
387 384 -3 0
387 -384 3 0
-387 384 3 0
-387 -384 -3 0
386 6 -4 0
386 -6 4 0
-386 6 4 0
-386 -6 -4 0
-388 387 0
-388 2 0
-388 1 -4 0
-388 -1 4 0
388 -387 1 4 -2 0
388 -387 -1 -4 -2 0
390 387 -1 0
390 -387 1 0
-390 387 1 0
-390 -387 -1 0
389 4 -2 0
389 -4 2 0
-389 4 2 0
-389 -4 -2 0
-390 0
-387 0
-389 0
-384 0
-386 0
-381 0
-383 0
-378 0
-380 0
-375 0
-377 0
-372 0
-374 0
-369 0
-371 0
-366 0
-368 0
-363 0
-365 0
-360 0
-362 0
-357 0
-359 0
-354 0
-356 0
-351 0
-353 0
-348 0
-350 0
-345 0
-347 0
-342 0
-344 0
-339 0
-341 0
-336 0
-338 0
-333 0
-335 0
-330 0
-332 0
-327 0
-329 0
-324 0
-326 0
-321 0
-323 0
-318 0
-320 0
-315 0
-317 0
-312 0
-314 0
-309 0
-311 0
-306 0
-308 0
-303 0
-305 0
-300 0
-302 0
-297 0
-299 0
-294 0
-296 0
-291 0
-293 0
-288 0
-290 0
-285 0
-287 0
-282 0
-284 0
-279 0
-281 0
-276 0
-278 0
-273 0
-275 0
-270 0
-272 0
-267 0
-269 0
-264 0
-266 0
-261 0
-263 0
-258 0
-260 0
-255 0
-257 0
-252 0
-254 0
-249 0
-251 0
-246 0
-248 0
-243 0
-245 0
-240 0
-242 0
-237 0
-239 0
-234 0
-236 0
-231 0
-233 0
-228 0
-230 0
-225 0
-227 0
-222 0
-224 0
-219 0
-221 0
-216 0
-218 0
-213 0
-215 0
-210 0
-212 0
-207 0
-209 0
-204 0
-206 0
-201 0
-203 0
-198 0
-200 0
-195 0
-197 0
-192 0
-194 0
-189 0
-191 0
-186 0
-188 0
-183 0
-185 0
-180 0
-182 0
-177 0
-179 0
-174 0
-176 0
-171 0
-173 0
-168 0
-170 0
-165 0
-167 0
-158 0
-164 0
